number of jobs, number of machines, initial seed, upper bound and lower bound :
          20           10   1533551564           45           41
processing times :
 14  80  76  94  68  39  93  13  60  92  42  62  22  74  41   4   7  27  42  33
 54  79   1   8  42  54  15  78  94  44  15   9  65  83  30  88  48  44  30  12
 90   5  81  63  13  16  53  47  52  37  42  42  61  17  98   4  70  89  71  51
 42  26  21  12  73  86  20  16  22  49  25   6  34  23  45  21  85  18  64   8
 84  15  10  46  67  99   8  97  79  52  96  84  28  30  92  89  15  16  58  62
  3  45  11  30  75  17  48  86  12   8  28   4  44  95  21  15  43  16  29  22
 53  56  29  44  10  86  82  72  86  51  75  10  51  53  42  63  56  70  58  58
 16  95   1  29  68  70  17  99  84  45   9   4  84  69  79  91   5  41   7   3
 62  10  15  16  60   7  40  80  23  24  12   9  45  70  45  82   2  36  87  36
 51  74  34  54   8   4   2  24  36  75  49  22  48  94  67  21  94  98  64  74
